minimize
obj: -1 x_1_
subject to
c1_2: -1 x_1_ - 1 u_1_ <= 0
c2_2: -1 x_2_ - 1 u_2_ <= 0
c3_2: -1 x_3_ - 1 u_3_ <= 0
c4_2: -1 x_4_ - 1 u_4_ <= 0
c5_2: 1 x_1_ - 1 u_1_ <= 0
c6_2: 1 x_2_ - 1 u_2_ <= 0
c7_2: 1 x_3_ - 1 u_3_ <= 0
c8_2: 1 x_4_ - 1 u_4_ <= 0
c9_2: 1 u_1_ <= 1
c10_2: 1 u_2_ <= 1
c11_2: 1 u_3_ <= 1
c12_2: 1 u_4_ <= 1
c1_1: 1 X_1,1_ - 2 R_1,1_ + 1 U_1,1_ >= 0
c2_1: 1 X_1,2_ - 1 R_2,1_ - 1 R_1,2_ + 1 U_1,2_ >= 0
c3_1: 1 X_1,3_ - 1 R_3,1_ - 1 R_1,3_ + 1 U_1,3_ >= 0
c4_1: 1 X_1,4_ - 1 R_4,1_ - 1 R_1,4_ + 1 U_1,4_ >= 0
c5_1: 1 X_1,2_ - 1 R_2,1_ - 1 R_1,2_ + 1 U_1,2_ >= 0
c6_1: 1 X_2,2_ - 2 R_2,2_ + 1 U_2,2_ >= 0
c7_1: 1 X_2,3_ - 1 R_3,2_ - 1 R_2,3_ + 1 U_2,3_ >= 0
c8_1: 1 X_2,4_ - 1 R_4,2_ - 1 R_2,4_ + 1 U_2,4_ >= 0
c9_1: 1 X_1,3_ - 1 R_3,1_ - 1 R_1,3_ + 1 U_1,3_ >= 0
c10_1: 1 X_2,3_ - 1 R_3,2_ - 1 R_2,3_ + 1 U_2,3_ >= 0
c11_1: 1 X_3,3_ - 2 R_3,3_ + 1 U_3,3_ >= 0
c12_1: 1 X_3,4_ - 1 R_4,3_ - 1 R_3,4_ + 1 U_3,4_ >= 0
c13_1: 1 X_1,4_ - 1 R_4,1_ - 1 R_1,4_ + 1 U_1,4_ >= 0
c14: 1 X_2,4_ - 1 R_4,2_ - 1 R_2,4_ + 1 U_2,4_ >= 0
c15: 1 X_3,4_ - 1 R_4,3_ - 1 R_3,4_ + 1 U_3,4_ >= 0
c16: 1 X_4,4_ - 2 R_4,4_ + 1 U_4,4_ >= 0
c17: 1 X_1,1_ + 2 R_1,1_ + 1 U_1,1_ >= 0
c18: 1 X_1,2_ + 1 R_2,1_ + 1 R_1,2_ + 1 U_1,2_ >= 0
c19: 1 X_1,3_ + 1 R_3,1_ + 1 R_1,3_ + 1 U_1,3_ >= 0
c20: 1 X_1,4_ + 1 R_4,1_ + 1 R_1,4_ + 1 U_1,4_ >= 0
c21: 1 X_1,2_ + 1 R_2,1_ + 1 R_1,2_ + 1 U_1,2_ >= 0
c22: 1 X_2,2_ + 2 R_2,2_ + 1 U_2,2_ >= 0
c23: 1 X_2,3_ + 1 R_3,2_ + 1 R_2,3_ + 1 U_2,3_ >= 0
c24: 1 X_2,4_ + 1 R_4,2_ + 1 R_2,4_ + 1 U_2,4_ >= 0
c25: 1 X_1,3_ + 1 R_3,1_ + 1 R_1,3_ + 1 U_1,3_ >= 0
c26: 1 X_2,3_ + 1 R_3,2_ + 1 R_2,3_ + 1 U_2,3_ >= 0
c27: 1 X_3,3_ + 2 R_3,3_ + 1 U_3,3_ >= 0
c28: 1 X_3,4_ + 1 R_4,3_ + 1 R_3,4_ + 1 U_3,4_ >= 0
c29: 1 X_1,4_ + 1 R_4,1_ + 1 R_1,4_ + 1 U_1,4_ >= 0
c30: 1 X_2,4_ + 1 R_4,2_ + 1 R_2,4_ + 1 U_2,4_ >= 0
c31: 1 X_3,4_ + 1 R_4,3_ + 1 R_3,4_ + 1 U_3,4_ >= 0
c32: 1 X_4,4_ + 2 R_4,4_ + 1 U_4,4_ >= 0
c33: -1 X_1,1_ + 1 U_1,1_ >= 0
c34: -1 X_1,2_ - 1 R_2,1_ + 1 R_1,2_ + 1 U_1,2_ >= 0
c35: -1 X_1,3_ - 1 R_3,1_ + 1 R_1,3_ + 1 U_1,3_ >= 0
c36: -1 X_1,4_ - 1 R_4,1_ + 1 R_1,4_ + 1 U_1,4_ >= 0
c37: -1 X_1,2_ + 1 R_2,1_ - 1 R_1,2_ + 1 U_1,2_ >= 0
c38: -1 X_2,2_ + 1 U_2,2_ >= 0
c39: -1 X_2,3_ - 1 R_3,2_ + 1 R_2,3_ + 1 U_2,3_ >= 0
c40: -1 X_2,4_ - 1 R_4,2_ + 1 R_2,4_ + 1 U_2,4_ >= 0
c41: -1 X_1,3_ + 1 R_3,1_ - 1 R_1,3_ + 1 U_1,3_ >= 0
c42: -1 X_2,3_ + 1 R_3,2_ - 1 R_2,3_ + 1 U_2,3_ >= 0
c43: -1 X_3,3_ + 1 U_3,3_ >= 0
c44: -1 X_3,4_ - 1 R_4,3_ + 1 R_3,4_ + 1 U_3,4_ >= 0
c45: -1 X_1,4_ + 1 R_4,1_ - 1 R_1,4_ + 1 U_1,4_ >= 0
c46: -1 X_2,4_ + 1 R_4,2_ - 1 R_2,4_ + 1 U_2,4_ >= 0
c47: -1 X_3,4_ + 1 R_4,3_ - 1 R_3,4_ + 1 U_3,4_ >= 0
c48: -1 X_4,4_ + 1 U_4,4_ >= 0
c49: -3 x_1_ + 3 u_1_ + 1 R_1,1_ + 1 R_1,2_ + 1 R_1,3_ + 1 R_1,4_ - 1 U_1,1_ - 1 U_1,2_ - 1 U_1,3_ - 1 U_1,4_ >= 0
c50: -3 x_2_ + 3 u_2_ + 1 R_2,1_ + 1 R_2,2_ + 1 R_2,3_ + 1 R_2,4_ - 1 U_1,2_ - 1 U_2,2_ - 1 U_2,3_ - 1 U_2,4_ >= 0
c51: -3 x_3_ + 3 u_3_ + 1 R_3,1_ + 1 R_3,2_ + 1 R_3,3_ + 1 R_3,4_ - 1 U_1,3_ - 1 U_2,3_ - 1 U_3,3_ - 1 U_3,4_ >= 0
c52: -3 x_4_ + 3 u_4_ + 1 R_4,1_ + 1 R_4,2_ + 1 R_4,3_ + 1 R_4,4_ - 1 U_1,4_ - 1 U_2,4_ - 1 U_3,4_ - 1 U_4,4_ >= 0
c53: 3 x_1_ + 3 u_1_ - 1 R_1,1_ - 1 R_1,2_ - 1 R_1,3_ - 1 R_1,4_ - 1 U_1,1_ - 1 U_1,2_ - 1 U_1,3_ - 1 U_1,4_ >= 0
c54: 3 x_2_ + 3 u_2_ - 1 R_2,1_ - 1 R_2,2_ - 1 R_2,3_ - 1 R_2,4_ - 1 U_1,2_ - 1 U_2,2_ - 1 U_2,3_ - 1 U_2,4_ >= 0
c55: 3 x_3_ + 3 u_3_ - 1 R_3,1_ - 1 R_3,2_ - 1 R_3,3_ - 1 R_3,4_ - 1 U_1,3_ - 1 U_2,3_ - 1 U_3,3_ - 1 U_3,4_ >= 0
c56: 3 x_4_ + 3 u_4_ - 1 R_4,1_ - 1 R_4,2_ - 1 R_4,3_ - 1 R_4,4_ - 1 U_1,4_ - 1 U_2,4_ - 1 U_3,4_ - 1 U_4,4_ >= 0
c57: -2 u_1_ + 1 U_1,1_ >= -1
c58: -1 u_1_ - 1 u_2_ + 1 U_1,2_ >= -1
c59: -1 u_1_ - 1 u_3_ + 1 U_1,3_ >= -1
c60: -1 u_1_ - 1 u_4_ + 1 U_1,4_ >= -1
c61: -1 u_1_ - 1 u_2_ + 1 U_1,2_ >= -1
c62: -2 u_2_ + 1 U_2,2_ >= -1
c63: -1 u_2_ - 1 u_3_ + 1 U_2,3_ >= -1
c64: -1 u_2_ - 1 u_4_ + 1 U_2,4_ >= -1
c65: -1 u_1_ - 1 u_3_ + 1 U_1,3_ >= -1
c66: -1 u_2_ - 1 u_3_ + 1 U_2,3_ >= -1
c67: -2 u_3_ + 1 U_3,3_ >= -1
c68: -1 u_3_ - 1 u_4_ + 1 U_3,4_ >= -1
c69: -1 u_1_ - 1 u_4_ + 1 U_1,4_ >= -1
c70: -1 u_2_ - 1 u_4_ + 1 U_2,4_ >= -1
c71: -1 u_3_ - 1 u_4_ + 1 U_3,4_ >= -1
c72: -2 u_4_ + 1 U_4,4_ >= -1
c73: -1 x_1_ + 1 u_1_ + 1 R_1,1_ - 1 U_1,1_ >= 0
c74: -1 x_2_ + 1 u_2_ + 1 R_2,1_ - 1 U_1,2_ >= 0
c75: -1 x_3_ + 1 u_3_ + 1 R_3,1_ - 1 U_1,3_ >= 0
c76: -1 x_4_ + 1 u_4_ + 1 R_4,1_ - 1 U_1,4_ >= 0
c77: -1 x_1_ + 1 u_1_ + 1 R_1,2_ - 1 U_1,2_ >= 0
c78: -1 x_2_ + 1 u_2_ + 1 R_2,2_ - 1 U_2,2_ >= 0
c79: -1 x_3_ + 1 u_3_ + 1 R_3,2_ - 1 U_2,3_ >= 0
c80: -1 x_4_ + 1 u_4_ + 1 R_4,2_ - 1 U_2,4_ >= 0
c81: -1 x_1_ + 1 u_1_ + 1 R_1,3_ - 1 U_1,3_ >= 0
c82: -1 x_2_ + 1 u_2_ + 1 R_2,3_ - 1 U_2,3_ >= 0
c83: -1 x_3_ + 1 u_3_ + 1 R_3,3_ - 1 U_3,3_ >= 0
c84: -1 x_4_ + 1 u_4_ + 1 R_4,3_ - 1 U_3,4_ >= 0
c85: -1 x_1_ + 1 u_1_ + 1 R_1,4_ - 1 U_1,4_ >= 0
c86: -1 x_2_ + 1 u_2_ + 1 R_2,4_ - 1 U_2,4_ >= 0
c87: -1 x_3_ + 1 u_3_ + 1 R_3,4_ - 1 U_3,4_ >= 0
c88: -1 x_4_ + 1 u_4_ + 1 R_4,4_ - 1 U_4,4_ >= 0
c89: 1 x_1_ + 1 u_1_ - 1 R_1,1_ - 1 U_1,1_ >= 0
c90: 1 x_2_ + 1 u_2_ - 1 R_2,1_ - 1 U_1,2_ >= 0
c91: 1 x_3_ + 1 u_3_ - 1 R_3,1_ - 1 U_1,3_ >= 0
c92: 1 x_4_ + 1 u_4_ - 1 R_4,1_ - 1 U_1,4_ >= 0
c93: 1 x_1_ + 1 u_1_ - 1 R_1,2_ - 1 U_1,2_ >= 0
c94: 1 x_2_ + 1 u_2_ - 1 R_2,2_ - 1 U_2,2_ >= 0
c95: 1 x_3_ + 1 u_3_ - 1 R_3,2_ - 1 U_2,3_ >= 0
c96: 1 x_4_ + 1 u_4_ - 1 R_4,2_ - 1 U_2,4_ >= 0
c97: 1 x_1_ + 1 u_1_ - 1 R_1,3_ - 1 U_1,3_ >= 0
c98: 1 x_2_ + 1 u_2_ - 1 R_2,3_ - 1 U_2,3_ >= 0
c99: 1 x_3_ + 1 u_3_ - 1 R_3,3_ - 1 U_3,3_ >= 0
c100: 1 x_4_ + 1 u_4_ - 1 R_4,3_ - 1 U_3,4_ >= 0
c101: 1 x_1_ + 1 u_1_ - 1 R_1,4_ - 1 U_1,4_ >= 0
c102: 1 x_2_ + 1 u_2_ - 1 R_2,4_ - 1 U_2,4_ >= 0
c103: 1 x_3_ + 1 u_3_ - 1 R_3,4_ - 1 U_3,4_ >= 0
c104: 1 x_4_ + 1 u_4_ - 1 R_4,4_ - 1 U_4,4_ >= 0
c1: -1 u_1_ + 1 U_1,1_ = 0
c2: -1 u_2_ + 1 U_2,2_ = 0
c3: -1 u_3_ + 1 U_3,3_ = 0
c4: -1 u_4_ + 1 U_4,4_ = 0
c5: 1 u_1_ + 1 u_2_ + 1 u_3_ + 1 u_4_ = 3
c6: -3 x_1_ + 1 R_1,1_ + 1 R_1,2_ + 1 R_1,3_ + 1 R_1,4_ = 0
c7: -3 x_2_ + 1 R_2,1_ + 1 R_2,2_ + 1 R_2,3_ + 1 R_2,4_ = 0
c8: -3 x_3_ + 1 R_3,1_ + 1 R_3,2_ + 1 R_3,3_ + 1 R_3,4_ = 0
c9: -3 x_4_ + 1 R_4,1_ + 1 R_4,2_ + 1 R_4,3_ + 1 R_4,4_ = 0
c10: -3 u_1_ + 1 U_1,1_ + 1 U_1,2_ + 1 U_1,3_ + 1 U_1,4_ = 0
c11: -3 u_2_ + 1 U_1,2_ + 1 U_2,2_ + 1 U_2,3_ + 1 U_2,4_ = 0
c12: -3 u_3_ + 1 U_1,3_ + 1 U_2,3_ + 1 U_3,3_ + 1 U_3,4_ = 0
c13: -3 u_4_ + 1 U_1,4_ + 1 U_2,4_ + 1 U_3,4_ + 1 U_4,4_ = 0
Bounds
x_1_ free
x_2_ free
x_3_ free
x_4_ free
u_1_ free
u_2_ free
u_3_ free
u_4_ free
X_1,1_ free
X_1,2_ free
X_2,2_ free
X_1,3_ free
X_2,3_ free
X_3,3_ free
X_1,4_ free
X_2,4_ free
X_3,4_ free
X_4,4_ free
R_1,1_ free
R_2,1_ free
R_3,1_ free
R_4,1_ free
R_1,2_ free
R_2,2_ free
R_3,2_ free
R_4,2_ free
R_1,3_ free
R_2,3_ free
R_3,3_ free
R_4,3_ free
R_1,4_ free
R_2,4_ free
R_3,4_ free
R_4,4_ free
U_1,1_ free
U_1,2_ free
U_2,2_ free
U_1,3_ free
U_2,3_ free
U_3,3_ free
U_1,4_ free
U_2,4_ free
U_3,4_ free
U_4,4_ free
End
